\ Model LRP_test01.txt
\ LP format - for model browsing. Use MPS format to capture full model detail.
Maximize
  10 x(0,0,0,0) + x(0,0,0,1) + x(0,0,0,2) + x(0,0,0,3) + x(0,0,1,0)
   + 5 x(0,0,1,1) + x(0,0,1,2) + x(0,0,1,3) + 10 x(0,0,2,0) + x(0,0,2,1)
   + x(0,0,2,2) + x(0,0,2,3) + x(0,0,3,0) + x(0,0,3,1) + x(0,0,3,2)
   + x(0,0,3,3) + x(0,0,4,0) + x(0,0,4,1) + x(0,0,4,2) + x(0,0,4,3)
   + 10 x(0,1,0,0) + x(0,1,0,1) + x(0,1,0,2) + x(0,1,0,3) + x(0,1,1,0)
   + 5 x(0,1,1,1) + x(0,1,1,2) + x(0,1,1,3) + 10 x(0,1,2,0) + x(0,1,2,1)
   + x(0,1,2,2) + x(0,1,2,3) + x(0,1,3,0) + x(0,1,3,1) + x(0,1,3,2)
   + x(0,1,3,3) + x(0,1,4,0) + x(0,1,4,1) + x(0,1,4,2) + x(0,1,4,3)
   + x(1,0,0,0) + 5 x(1,0,0,1) + x(1,0,0,2) + x(1,0,0,3) + 10 x(1,0,1,0)
   + x(1,0,1,1) + x(1,0,1,2) + x(1,0,1,3) + x(1,0,2,0) + x(1,0,2,1)
   + x(1,0,2,2) + x(1,0,2,3) + 10 x(1,0,3,0) + x(1,0,3,1) + x(1,0,3,2)
   + x(1,0,3,3) + x(1,0,4,0) + x(1,0,4,1) + x(1,0,4,2) + x(1,0,4,3)
   + x(1,1,0,0) + 5 x(1,1,0,1) + x(1,1,0,2) + x(1,1,0,3) + 10 x(1,1,1,0)
   + x(1,1,1,1) + x(1,1,1,2) + x(1,1,1,3) + x(1,1,2,0) + x(1,1,2,1)
   + x(1,1,2,2) + x(1,1,2,3) + 10 x(1,1,3,0) + x(1,1,3,1) + x(1,1,3,2)
   + x(1,1,3,3) + x(1,1,4,0) + x(1,1,4,1) + x(1,1,4,2) + x(1,1,4,3)
Subject To
 c1(0,0,0): x(0,0,0,0) + x(0,1,0,0) <= 1
 c1(0,0,1): x(0,0,0,1) + x(0,1,0,1) <= 1
 c1(0,0,2): x(0,0,0,2) + x(0,1,0,2) <= 1
 c1(0,0,3): x(0,0,0,3) + x(0,1,0,3) <= 1
 c1(0,1,0): x(0,0,1,0) + x(0,1,1,0) <= 1
 c1(0,1,1): x(0,0,1,1) + x(0,1,1,1) <= 1
 c1(0,1,2): x(0,0,1,2) + x(0,1,1,2) <= 1
 c1(0,1,3): x(0,0,1,3) + x(0,1,1,3) <= 1
 c1(0,2,0): x(0,0,2,0) + x(0,1,2,0) <= 1
 c1(0,2,1): x(0,0,2,1) + x(0,1,2,1) <= 1
 c1(0,2,2): x(0,0,2,2) + x(0,1,2,2) <= 1
 c1(0,2,3): x(0,0,2,3) + x(0,1,2,3) <= 1
 c1(0,3,0): x(0,0,3,0) + x(0,1,3,0) <= 1
 c1(0,3,1): x(0,0,3,1) + x(0,1,3,1) <= 1
 c1(0,3,2): x(0,0,3,2) + x(0,1,3,2) <= 1
 c1(0,3,3): x(0,0,3,3) + x(0,1,3,3) <= 1
 c1(0,4,0): x(0,0,4,0) + x(0,1,4,0) <= 1
 c1(0,4,1): x(0,0,4,1) + x(0,1,4,1) <= 1
 c1(0,4,2): x(0,0,4,2) + x(0,1,4,2) <= 1
 c1(0,4,3): x(0,0,4,3) + x(0,1,4,3) <= 1
 c1(1,0,0): x(1,0,0,0) + x(1,1,0,0) <= 1
 c1(1,0,1): x(1,0,0,1) + x(1,1,0,1) <= 1
 c1(1,0,2): x(1,0,0,2) + x(1,1,0,2) <= 1
 c1(1,0,3): x(1,0,0,3) + x(1,1,0,3) <= 1
 c1(1,1,0): x(1,0,1,0) + x(1,1,1,0) <= 1
 c1(1,1,1): x(1,0,1,1) + x(1,1,1,1) <= 1
 c1(1,1,2): x(1,0,1,2) + x(1,1,1,2) <= 1
 c1(1,1,3): x(1,0,1,3) + x(1,1,1,3) <= 1
 c1(1,2,0): x(1,0,2,0) + x(1,1,2,0) <= 1
 c1(1,2,1): x(1,0,2,1) + x(1,1,2,1) <= 1
 c1(1,2,2): x(1,0,2,2) + x(1,1,2,2) <= 1
 c1(1,2,3): x(1,0,2,3) + x(1,1,2,3) <= 1
 c1(1,3,0): x(1,0,3,0) + x(1,1,3,0) <= 1
 c1(1,3,1): x(1,0,3,1) + x(1,1,3,1) <= 1
 c1(1,3,2): x(1,0,3,2) + x(1,1,3,2) <= 1
 c1(1,3,3): x(1,0,3,3) + x(1,1,3,3) <= 1
 c1(1,4,0): x(1,0,4,0) + x(1,1,4,0) <= 1
 c1(1,4,1): x(1,0,4,1) + x(1,1,4,1) <= 1
 c1(1,4,2): x(1,0,4,2) + x(1,1,4,2) <= 1
 c1(1,4,3): x(1,0,4,3) + x(1,1,4,3) <= 1
 c2(0,0,0): x(0,0,0,0) + x(1,0,0,0) <= 1
 c2(0,0,1): x(0,0,0,1) + x(1,0,0,1) <= 1
 c2(0,0,2): x(0,0,0,2) + x(1,0,0,2) <= 1
 c2(0,0,3): x(0,0,0,3) + x(1,0,0,3) <= 1
 c2(0,1,0): x(0,0,1,0) + x(1,0,1,0) <= 1
 c2(0,1,1): x(0,0,1,1) + x(1,0,1,1) <= 1
 c2(0,1,2): x(0,0,1,2) + x(1,0,1,2) <= 1
 c2(0,1,3): x(0,0,1,3) + x(1,0,1,3) <= 1
 c2(0,2,0): x(0,0,2,0) + x(1,0,2,0) <= 1
 c2(0,2,1): x(0,0,2,1) + x(1,0,2,1) <= 1
 c2(0,2,2): x(0,0,2,2) + x(1,0,2,2) <= 1
 c2(0,2,3): x(0,0,2,3) + x(1,0,2,3) <= 1
 c2(0,3,0): x(0,0,3,0) + x(1,0,3,0) <= 1
 c2(0,3,1): x(0,0,3,1) + x(1,0,3,1) <= 1
 c2(0,3,2): x(0,0,3,2) + x(1,0,3,2) <= 1
 c2(0,3,3): x(0,0,3,3) + x(1,0,3,3) <= 1
 c2(0,4,0): x(0,0,4,0) + x(1,0,4,0) <= 1
 c2(0,4,1): x(0,0,4,1) + x(1,0,4,1) <= 1
 c2(0,4,2): x(0,0,4,2) + x(1,0,4,2) <= 1
 c2(0,4,3): x(0,0,4,3) + x(1,0,4,3) <= 1
 c2(1,0,0): x(0,1,0,0) + x(1,1,0,0) <= 1
 c2(1,0,1): x(0,1,0,1) + x(1,1,0,1) <= 1
 c2(1,0,2): x(0,1,0,2) + x(1,1,0,2) <= 1
 c2(1,0,3): x(0,1,0,3) + x(1,1,0,3) <= 1
 c2(1,1,0): x(0,1,1,0) + x(1,1,1,0) <= 1
 c2(1,1,1): x(0,1,1,1) + x(1,1,1,1) <= 1
 c2(1,1,2): x(0,1,1,2) + x(1,1,1,2) <= 1
 c2(1,1,3): x(0,1,1,3) + x(1,1,1,3) <= 1
 c2(1,2,0): x(0,1,2,0) + x(1,1,2,0) <= 1
 c2(1,2,1): x(0,1,2,1) + x(1,1,2,1) <= 1
 c2(1,2,2): x(0,1,2,2) + x(1,1,2,2) <= 1
 c2(1,2,3): x(0,1,2,3) + x(1,1,2,3) <= 1
 c2(1,3,0): x(0,1,3,0) + x(1,1,3,0) <= 1
 c2(1,3,1): x(0,1,3,1) + x(1,1,3,1) <= 1
 c2(1,3,2): x(0,1,3,2) + x(1,1,3,2) <= 1
 c2(1,3,3): x(0,1,3,3) + x(1,1,3,3) <= 1
 c2(1,4,0): x(0,1,4,0) + x(1,1,4,0) <= 1
 c2(1,4,1): x(0,1,4,1) + x(1,1,4,1) <= 1
 c2(1,4,2): x(0,1,4,2) + x(1,1,4,2) <= 1
 c2(1,4,3): x(0,1,4,3) + x(1,1,4,3) <= 1
 c3(0,0): x(0,0,0,0) + x(0,0,0,1) + x(0,0,0,2) + x(0,0,0,3) + x(0,0,1,0)
   + x(0,0,1,1) + x(0,0,1,2) + x(0,0,1,3) + x(0,0,2,0) + x(0,0,2,1)
   + x(0,0,2,2) + x(0,0,2,3) + x(0,0,3,0) + x(0,0,3,1) + x(0,0,3,2)
   + x(0,0,3,3) + x(0,0,4,0) + x(0,0,4,1) + x(0,0,4,2) + x(0,0,4,3) = 2
 c3(0,1): x(0,1,0,0) + x(0,1,0,1) + x(0,1,0,2) + x(0,1,0,3) + x(0,1,1,0)
   + x(0,1,1,1) + x(0,1,1,2) + x(0,1,1,3) + x(0,1,2,0) + x(0,1,2,1)
   + x(0,1,2,2) + x(0,1,2,3) + x(0,1,3,0) + x(0,1,3,1) + x(0,1,3,2)
   + x(0,1,3,3) + x(0,1,4,0) + x(0,1,4,1) + x(0,1,4,2) + x(0,1,4,3) = 4
 c3(1,0): x(1,0,0,0) + x(1,0,0,1) + x(1,0,0,2) + x(1,0,0,3) + x(1,0,1,0)
   + x(1,0,1,1) + x(1,0,1,2) + x(1,0,1,3) + x(1,0,2,0) + x(1,0,2,1)
   + x(1,0,2,2) + x(1,0,2,3) + x(1,0,3,0) + x(1,0,3,1) + x(1,0,3,2)
   + x(1,0,3,3) + x(1,0,4,0) + x(1,0,4,1) + x(1,0,4,2) + x(1,0,4,3) = 4
 c3(1,1): x(1,1,0,0) + x(1,1,0,1) + x(1,1,0,2) + x(1,1,0,3) + x(1,1,1,0)
   + x(1,1,1,1) + x(1,1,1,2) + x(1,1,1,3) + x(1,1,2,0) + x(1,1,2,1)
   + x(1,1,2,2) + x(1,1,2,3) + x(1,1,3,0) + x(1,1,3,1) + x(1,1,3,2)
   + x(1,1,3,3) + x(1,1,4,0) + x(1,1,4,1) + x(1,1,4,2) + x(1,1,4,3) = 2
 c4(0,0,0): x(0,0,0,0) + x(0,0,0,1) + x(0,0,0,2) + x(0,0,0,3) <= 2
 c4(0,0,1): x(0,0,1,0) + x(0,0,1,1) + x(0,0,1,2) + x(0,0,1,3) <= 2
 c4(0,0,2): x(0,0,2,0) + x(0,0,2,1) + x(0,0,2,2) + x(0,0,2,3) <= 2
 c4(0,0,3): x(0,0,3,0) + x(0,0,3,1) + x(0,0,3,2) + x(0,0,3,3) <= 2
 c4(0,0,4): x(0,0,4,0) + x(0,0,4,1) + x(0,0,4,2) + x(0,0,4,3) <= 2
 c4(0,1,0): x(0,1,0,0) + x(0,1,0,1) + x(0,1,0,2) + x(0,1,0,3) <= 2
 c4(0,1,1): x(0,1,1,0) + x(0,1,1,1) + x(0,1,1,2) + x(0,1,1,3) <= 2
 c4(0,1,2): x(0,1,2,0) + x(0,1,2,1) + x(0,1,2,2) + x(0,1,2,3) <= 2
 c4(0,1,3): x(0,1,3,0) + x(0,1,3,1) + x(0,1,3,2) + x(0,1,3,3) <= 2
 c4(0,1,4): x(0,1,4,0) + x(0,1,4,1) + x(0,1,4,2) + x(0,1,4,3) <= 2
 c4(1,0,0): x(1,0,0,0) + x(1,0,0,1) + x(1,0,0,2) + x(1,0,0,3) <= 2
 c4(1,0,1): x(1,0,1,0) + x(1,0,1,1) + x(1,0,1,2) + x(1,0,1,3) <= 2
 c4(1,0,2): x(1,0,2,0) + x(1,0,2,1) + x(1,0,2,2) + x(1,0,2,3) <= 2
 c4(1,0,3): x(1,0,3,0) + x(1,0,3,1) + x(1,0,3,2) + x(1,0,3,3) <= 2
 c4(1,0,4): x(1,0,4,0) + x(1,0,4,1) + x(1,0,4,2) + x(1,0,4,3) <= 2
 c4(1,1,0): x(1,1,0,0) + x(1,1,0,1) + x(1,1,0,2) + x(1,1,0,3) <= 2
 c4(1,1,1): x(1,1,1,0) + x(1,1,1,1) + x(1,1,1,2) + x(1,1,1,3) <= 2
 c4(1,1,2): x(1,1,2,0) + x(1,1,2,1) + x(1,1,2,2) + x(1,1,2,3) <= 2
 c4(1,1,3): x(1,1,3,0) + x(1,1,3,1) + x(1,1,3,2) + x(1,1,3,3) <= 2
 c4(1,1,4): x(1,1,4,0) + x(1,1,4,1) + x(1,1,4,2) + x(1,1,4,3) <= 2
Bounds
Binaries
 x(0,0,0,0) x(0,0,0,1) x(0,0,0,2) x(0,0,0,3) x(0,0,1,0) x(0,0,1,1)
 x(0,0,1,2) x(0,0,1,3) x(0,0,2,0) x(0,0,2,1) x(0,0,2,2) x(0,0,2,3)
 x(0,0,3,0) x(0,0,3,1) x(0,0,3,2) x(0,0,3,3) x(0,0,4,0) x(0,0,4,1)
 x(0,0,4,2) x(0,0,4,3) x(0,1,0,0) x(0,1,0,1) x(0,1,0,2) x(0,1,0,3)
 x(0,1,1,0) x(0,1,1,1) x(0,1,1,2) x(0,1,1,3) x(0,1,2,0) x(0,1,2,1)
 x(0,1,2,2) x(0,1,2,3) x(0,1,3,0) x(0,1,3,1) x(0,1,3,2) x(0,1,3,3)
 x(0,1,4,0) x(0,1,4,1) x(0,1,4,2) x(0,1,4,3) x(1,0,0,0) x(1,0,0,1)
 x(1,0,0,2) x(1,0,0,3) x(1,0,1,0) x(1,0,1,1) x(1,0,1,2) x(1,0,1,3)
 x(1,0,2,0) x(1,0,2,1) x(1,0,2,2) x(1,0,2,3) x(1,0,3,0) x(1,0,3,1)
 x(1,0,3,2) x(1,0,3,3) x(1,0,4,0) x(1,0,4,1) x(1,0,4,2) x(1,0,4,3)
 x(1,1,0,0) x(1,1,0,1) x(1,1,0,2) x(1,1,0,3) x(1,1,1,0) x(1,1,1,1)
 x(1,1,1,2) x(1,1,1,3) x(1,1,2,0) x(1,1,2,1) x(1,1,2,2) x(1,1,2,3)
 x(1,1,3,0) x(1,1,3,1) x(1,1,3,2) x(1,1,3,3) x(1,1,4,0) x(1,1,4,1)
 x(1,1,4,2) x(1,1,4,3)
End
